Ag                                      
   1.00000000000000     
     8.6422590796619847    0.0000000000000000    0.0000000000000000
     0.0000000000000000    8.6422590796619847    0.0000000000000000
     0.0000000000000000    0.0000000000000000   22.1110000000000007
   Cl   Ag
     1    36
Selective dynamics
Direct
  0.1687480019473803  0.1687480019473803  0.3621923820677851   T   T   T
 -0.0039004961391615 -0.0039004961391615  0.2798333778152650   T   T   T
  0.3374478000892830 -0.0040022042186476  0.2798739317451342   T   T   T
  0.6668370107579088 -0.0000857750888136  0.2778489125464609   T   T   T
 -0.0040022042186476  0.3374478000892830  0.2798739317451342   T   T   T
  0.3378146435015593  0.3378146435015593  0.2799094151559093   T   T   T
  0.6669645625183008  0.3333598677382100  0.2778396594321954   T   T   T
 -0.0000857750888136  0.6668370107579088  0.2778489125464609   T   T   T
  0.3333598677382100  0.6669645625183008  0.2778396594321954   T   T   T
  0.6666435546185295  0.6666435546185295  0.2786807326180150   T   T   T
  0.1667131205606352  0.1667131205606352  0.1853568276975469   T   T   T
  0.4984366464073908  0.1666851743863734  0.1856760693126896   T   T   T
  0.8350349098450617  0.1666432691657380  0.1856761944444372   T   T   T
  0.1666851743863734  0.4984366464073908  0.1856760693126896   T   T   T
  0.4991349424275031  0.4991349424275031  0.1857357523111577   T   T   T
  0.8343328427667878  0.4991238755140102  0.1857293248957853   T   T   T
  0.1666432691657380  0.8350349098450617  0.1856761944444372   T   T   T
  0.4991238755140102  0.8343328427667878  0.1857293248957853   T   T   T
  0.8342231684447423  0.8342231684447423  0.1857084121686897   T   T   T
  0.0000000000000000  0.0000000000000000  0.0921260910858877   F   F   F
  0.3333333333333357  0.0000000000000000  0.0921260910858877   F   F   F
  0.6666666666666643  0.0000000000000000  0.0921260910858877   F   F   F
  0.0000000000000000  0.3333333333333357  0.0921260910858877   F   F   F
  0.3333333333333357  0.3333333333333357  0.0921260910858877   F   F   F
  0.6666666666666643  0.3333333333333357  0.0921260910858877   F   F   F
  0.0000000000000000  0.6666666666666643  0.0921260910858877   F   F   F
  0.3333333333333357  0.6666666666666643  0.0921260910858877   F   F   F
  0.6666666666666643  0.6666666666666643  0.0921260910858877   F   F   F
  0.1666666666666643  0.1666666666666643  0.0000000000000000   F   F   F
  0.5000000000000000  0.1666666666666643  0.0000000000000000   F   F   F
  0.8333333333333357  0.1666666666666643  0.0000000000000000   F   F   F
  0.1666666666666643  0.5000000000000000  0.0000000000000000   F   F   F
  0.5000000000000000  0.5000000000000000  0.0000000000000000   F   F   F
  0.8333333333333357  0.5000000000000000  0.0000000000000000   F   F   F
  0.1666666666666643  0.8333333333333357  0.0000000000000000   F   F   F
  0.5000000000000000  0.8333333333333357  0.0000000000000000   F   F   F
  0.8333333333333357  0.8333333333333357  0.0000000000000000   F   F   F
 
             NaN             NaN             NaN
             NaN             NaN             NaN
             NaN             NaN             NaN
             NaN             NaN             NaN
             NaN             NaN             NaN
             NaN             NaN             NaN
             NaN             NaN             NaN
             NaN             NaN             NaN
             NaN             NaN             NaN
             NaN             NaN             NaN
             NaN             NaN             NaN
             NaN             NaN             NaN
             NaN             NaN             NaN
             NaN             NaN             NaN
             NaN             NaN             NaN
             NaN             NaN             NaN
             NaN             NaN             NaN
             NaN             NaN             NaN
             NaN             NaN             NaN
             NaN             NaN             NaN
             NaN             NaN             NaN
             NaN             NaN             NaN
             NaN             NaN             NaN
             NaN             NaN             NaN
             NaN             NaN             NaN
             NaN             NaN             NaN
             NaN             NaN             NaN
             NaN             NaN             NaN
             NaN             NaN             NaN
             NaN             NaN             NaN
             NaN             NaN             NaN
             NaN             NaN             NaN
             NaN             NaN             NaN
             NaN             NaN             NaN
             NaN             NaN             NaN
             NaN             NaN             NaN
             NaN             NaN             NaN
