Ag                                      
   1.00000000000000     
    11.5230121062159796    0.0000000000000000    0.0000000000000000
     0.0000000000000000   11.5230121062159796    0.0000000000000000
     0.0000000000000000    0.0000000000000000   22.1110000000000007
   Ag
    64
Selective dynamics
Direct
  0.1250000000000000  0.1250000000000000  0.0000000000000000   F   F   F
  0.3750000000000001  0.1250000000000000  0.0000000000000000   F   F   F
  0.6250000000000000  0.1250000000000000  0.0000000000000000   F   F   F
  0.8750000000000000  0.1250000000000000  0.0000000000000000   F   F   F
  0.1250000000000000  0.3750000000000001  0.0000000000000000   F   F   F
  0.3750000000000001  0.3750000000000001  0.0000000000000000   F   F   F
  0.6250000000000000  0.3750000000000001  0.0000000000000000   F   F   F
  0.8750000000000000  0.3750000000000001  0.0000000000000000   F   F   F
  0.1250000000000000  0.6250000000000000  0.0000000000000000   F   F   F
  0.3750000000000001  0.6250000000000000  0.0000000000000000   F   F   F
  0.6250000000000000  0.6250000000000000  0.0000000000000000   F   F   F
  0.8750000000000000  0.6250000000000000  0.0000000000000000   F   F   F
  0.1250000000000000  0.8750000000000000  0.0000000000000000   F   F   F
  0.3750000000000001  0.8750000000000000  0.0000000000000000   F   F   F
  0.6250000000000000  0.8750000000000000  0.0000000000000000   F   F   F
  0.8750000000000000  0.8750000000000000  0.0000000000000000   F   F   F
  0.0000000000000000  0.0000000000000000  0.0921260910858877   F   F   F
  0.2500000000000000  0.0000000000000000  0.0921260910858877   F   F   F
  0.5000000000000000  0.0000000000000000  0.0921260910858877   F   F   F
  0.7500000000000002  0.0000000000000000  0.0921260910858877   F   F   F
  0.0000000000000000  0.2500000000000000  0.0921260910858877   F   F   F
  0.2500000000000000  0.2500000000000000  0.0921260910858877   F   F   F
  0.5000000000000000  0.2500000000000000  0.0921260910858877   F   F   F
  0.7500000000000002  0.2500000000000000  0.0921260910858877   F   F   F
  0.0000000000000000  0.5000000000000000  0.0921260910858877   F   F   F
  0.2500000000000000  0.5000000000000000  0.0921260910858877   F   F   F
  0.5000000000000000  0.5000000000000000  0.0921260910858877   F   F   F
  0.7500000000000002  0.5000000000000000  0.0921260910858877   F   F   F
  0.0000000000000000  0.7500000000000002  0.0921260910858877   F   F   F
  0.2500000000000000  0.7500000000000002  0.0921260910858877   F   F   F
  0.5000000000000000  0.7500000000000002  0.0921260910858877   F   F   F
  0.7500000000000002  0.7500000000000002  0.0921260910858877   F   F   F
  0.1250000000000000  0.1250000000000000  0.1852624491501764   T   T   T
  0.3750000000000001  0.1250000000000000  0.1852624491501764   T   T   T
  0.6250000000000000  0.1250000000000000  0.1852624491501764   T   T   T
  0.8750000000000000  0.1250000000000000  0.1852624491501764   T   T   T
  0.1250000000000000  0.3750000000000001  0.1852624491501764   T   T   T
  0.3750000000000001  0.3750000000000001  0.1852624491501764   T   T   T
  0.6250000000000000  0.3750000000000001  0.1852624491501764   T   T   T
  0.8750000000000000  0.3750000000000001  0.1852624491501764   T   T   T
  0.1250000000000000  0.6250000000000000  0.1852624491501764   T   T   T
  0.3750000000000001  0.6250000000000000  0.1852624491501764   T   T   T
  0.6250000000000000  0.6250000000000000  0.1852624491501764   T   T   T
  0.8750000000000000  0.6250000000000000  0.1852624491501764   T   T   T
  0.1250000000000000  0.8750000000000000  0.1852624491501764   T   T   T
  0.3750000000000001  0.8750000000000000  0.1852624491501764   T   T   T
  0.6250000000000000  0.8750000000000000  0.1852624491501764   T   T   T
  0.8750000000000000  0.8750000000000000  0.1852624491501764   T   T   T
 -0.0000000000000000  0.0000000000000000  0.2777958428787553   T   T   T
  0.2500000000000000  0.0000000000000000  0.2777958428787553   T   T   T
  0.5000000000000000  0.0000000000000000  0.2777958428787553   T   T   T
  0.7500000000000002  0.0000000000000000  0.2777958428787553   T   T   T
 -0.0000000000000000  0.2500000000000000  0.2777958428787553   T   T   T
  0.2500000000000000  0.2500000000000000  0.2777958428787553   T   T   T
  0.5000000000000000  0.2500000000000000  0.2777958428787553   T   T   T
  0.7500000000000002  0.2500000000000000  0.2777958428787553   T   T   T
 -0.0000000000000000  0.5000000000000000  0.2777958428787553   T   T   T
  0.2500000000000000  0.5000000000000000  0.2777958428787553   T   T   T
  0.5000000000000000  0.5000000000000000  0.2777958428787553   T   T   T
  0.7500000000000002  0.5000000000000000  0.2777958428787553   T   T   T
 -0.0000000000000000  0.7500000000000002  0.2777958428787553   T   T   T
  0.2500000000000000  0.7500000000000002  0.2777958428787553   T   T   T
  0.5000000000000000  0.7500000000000002  0.2777958428787553   T   T   T
  0.7500000000000002  0.7500000000000002  0.2777958428787553   T   T   T
 
             NaN             NaN             NaN
             NaN             NaN             NaN
             NaN             NaN             NaN
             NaN             NaN             NaN
             NaN             NaN             NaN
             NaN             NaN             NaN
             NaN             NaN             NaN
             NaN             NaN             NaN
             NaN             NaN             NaN
             NaN             NaN             NaN
             NaN             NaN             NaN
             NaN             NaN             NaN
             NaN             NaN             NaN
             NaN             NaN             NaN
             NaN             NaN             NaN
             NaN             NaN             NaN
             NaN             NaN             NaN
             NaN             NaN             NaN
             NaN             NaN             NaN
             NaN             NaN             NaN
             NaN             NaN             NaN
             NaN             NaN             NaN
             NaN             NaN             NaN
             NaN             NaN             NaN
             NaN             NaN             NaN
             NaN             NaN             NaN
             NaN             NaN             NaN
             NaN             NaN             NaN
             NaN             NaN             NaN
             NaN             NaN             NaN
             NaN             NaN             NaN
             NaN             NaN             NaN
             NaN             NaN             NaN
             NaN             NaN             NaN
             NaN             NaN             NaN
             NaN             NaN             NaN
             NaN             NaN             NaN
             NaN             NaN             NaN
             NaN             NaN             NaN
             NaN             NaN             NaN
             NaN             NaN             NaN
             NaN             NaN             NaN
             NaN             NaN             NaN
             NaN             NaN             NaN
             NaN             NaN             NaN
             NaN             NaN             NaN
             NaN             NaN             NaN
             NaN             NaN             NaN
             NaN             NaN             NaN
             NaN             NaN             NaN
             NaN             NaN             NaN
             NaN             NaN             NaN
             NaN             NaN             NaN
             NaN             NaN             NaN
             NaN             NaN             NaN
             NaN             NaN             NaN
             NaN             NaN             NaN
             NaN             NaN             NaN
             NaN             NaN             NaN
             NaN             NaN             NaN
             NaN             NaN             NaN
             NaN             NaN             NaN
             NaN             NaN             NaN
             NaN             NaN             NaN
