kpoints
0
Monkhorst-pack
4  4  1
0  0  0
