Ag 
 1.0000000000000000
    11.5230121062159796    0.0000000000000000    0.0000000000000000
     0.0000000000000000   11.5230121062159796    0.0000000000000000
     0.0000000000000000    0.0000000000000000   22.1110000000000007
  64
Selective dynamics
Cartesian
  1.4403765132769974  1.4403765132769974  0.0000000000000117   F   F   F
  4.3211295398309923  1.4403765132769974  0.0000000000000117   F   F   F
  7.2018825663849872  1.4403765132769974  0.0000000000000117   F   F   F
 10.0826355929389813  1.4403765132769974  0.0000000000000117   F   F   F
  1.4403765132769974  4.3211295398309923  0.0000000000000117   F   F   F
  4.3211295398309923  4.3211295398309923  0.0000000000000117   F   F   F
  7.2018825663849872  4.3211295398309923  0.0000000000000117   F   F   F
 10.0826355929389813  4.3211295398309923  0.0000000000000117   F   F   F
  1.4403765132769974  7.2018825663849872  0.0000000000000117   F   F   F
  4.3211295398309923  7.2018825663849872  0.0000000000000117   F   F   F
  7.2018825663849872  7.2018825663849872  0.0000000000000117   F   F   F
 10.0826355929389813  7.2018825663849872  0.0000000000000117   F   F   F
  1.4403765132769974 10.0826355929389813  0.0000000000000117   F   F   F
  4.3211295398309923 10.0826355929389813  0.0000000000000117   F   F   F
  7.2018825663849872 10.0826355929389813  0.0000000000000117   F   F   F
 10.0826355929389813 10.0826355929389813  0.0000000000000117   F   F   F
  0.0000000000000000 -0.0000000000000005  2.0370000000000186   F   F   F
  2.8807530265539949 -0.0000000000000005  2.0370000000000186   F   F   F
  5.7615060531079898 -0.0000000000000005  2.0370000000000186   F   F   F
  8.6422590796619847 -0.0000000000000005  2.0370000000000186   F   F   F
  0.0000000000000000  2.8807530265539949  2.0370000000000186   F   F   F
  2.8807530265539949  2.8807530265539949  2.0370000000000186   F   F   F
  5.7615060531079898  2.8807530265539949  2.0370000000000186   F   F   F
  8.6422590796619847  2.8807530265539949  2.0370000000000186   F   F   F
  0.0000000000000000  5.7615060531079898  2.0370000000000186   F   F   F
  2.8807530265539949  5.7615060531079898  2.0370000000000186   F   F   F
  5.7615060531079898  5.7615060531079898  2.0370000000000186   F   F   F
  8.6422590796619847  5.7615060531079898  2.0370000000000186   F   F   F
  0.0000000000000000  8.6422590796619847  2.0370000000000186   F   F   F
  2.8807530265539949  8.6422590796619847  2.0370000000000186   F   F   F
  5.7615060531079898  8.6422590796619847  2.0370000000000186   F   F   F
  8.6422590796619847  8.6422590796619847  2.0370000000000186   F   F   F
  1.4403765132769974  1.4403765132769974  4.0740000000000283   T   T   T
  4.3211295398309923  1.4403765132769974  4.0740000000000283   T   T   T
  7.2018825663849872  1.4403765132769974  4.0740000000000283   T   T   T
 10.0826355929389813  1.4403765132769974  4.0740000000000283   T   T   T
  1.4403765132769974  4.3211295398309923  4.0740000000000283   T   T   T
  4.3211295398309923  4.3211295398309923  4.0740000000000283   T   T   T
  7.2018825663849872  4.3211295398309923  4.0740000000000283   T   T   T
 10.0826355929389813  4.3211295398309923  4.0740000000000283   T   T   T
  1.4403765132769974  7.2018825663849872  4.0740000000000283   T   T   T
  4.3211295398309923  7.2018825663849872  4.0740000000000283   T   T   T
  7.2018825663849872  7.2018825663849872  4.0740000000000283   T   T   T
 10.0826355929389813  7.2018825663849872  4.0740000000000283   T   T   T
  1.4403765132769974 10.0826355929389813  4.0740000000000283   T   T   T
  4.3211295398309923 10.0826355929389813  4.0740000000000283   T   T   T
  7.2018825663849872 10.0826355929389813  4.0740000000000283   T   T   T
 10.0826355929389813 10.0826355929389813  4.0740000000000283   T   T   T
  0.0000000000000000 -0.0000000000000005  6.1110000000000291   T   T   T
  2.8807530265539949 -0.0000000000000005  6.1110000000000291   T   T   T
  5.7615060531079898 -0.0000000000000005  6.1110000000000291   T   T   T
  8.6422590796619847 -0.0000000000000005  6.1110000000000291   T   T   T
  0.0000000000000000  2.8807530265539949  6.1110000000000291   T   T   T
  2.8807530265539949  2.8807530265539949  6.1110000000000291   T   T   T
  5.7615060531079898  2.8807530265539949  6.1110000000000291   T   T   T
  8.6422590796619847  2.8807530265539949  6.1110000000000291   T   T   T
  0.0000000000000000  5.7615060531079898  6.1110000000000291   T   T   T
  2.8807530265539949  5.7615060531079898  6.1110000000000291   T   T   T
  5.7615060531079898  5.7615060531079898  6.1110000000000291   T   T   T
  8.6422590796619847  5.7615060531079898  6.1110000000000291   T   T   T
  0.0000000000000000  8.6422590796619847  6.1110000000000291   T   T   T
  2.8807530265539949  8.6422590796619847  6.1110000000000291   T   T   T
  5.7615060531079898  8.6422590796619847  6.1110000000000291   T   T   T
  8.6422590796619847  8.6422590796619847  6.1110000000000291   T   T   T
