kpoints
0
Monkhorst-pack
6  6  1
0  0  0
