Ag                                      
   1.00000000000000     
     8.6422590796619847    0.0000000000000000    0.0000000000000000
     0.0000000000000000    8.6422590796619847    0.0000000000000000
     0.0000000000000000    0.0000000000000000   22.1110000000000007
Cl Ag
1 36
Selective dynamics
Direct
0.17 0.005 .4098637137987371 T T T
  0.0000000000000000 -0.0000000000000000  0.2787072758266870   T   T   T
  0.3333333333333357  0.0000000000000000  0.2787072758266870   T   T   T
  0.6666666666666643  0.0000000000000000  0.2787072758266870   T   T   T
  0.0000000000000000  0.3333333333333357  0.2787072758266870   T   T   T
  0.3333333333333357  0.3333333333333357  0.2787072758266870   T   T   T
  0.6666666666666643  0.3333333333333357  0.2787072758266870   T   T   T
 -0.0000000000000000  0.6666666666666643  0.2787072758266870   T   T   T
  0.3333333333333357  0.6666666666666643  0.2787072758266870   T   T   T
  0.6666666666666643  0.6666666666666643  0.2787072758266870   T   T   T
  0.1666666666666643  0.1666666666666643  0.1855829151745265   T   T   T
  0.5000000000000000  0.1666666666666643  0.1855829151745265   T   T   T
  0.8333333333333357  0.1666666666666643  0.1855829151745265   T   T   T
  0.1666666666666643  0.5000000000000000  0.1855829151745265   T   T   T
  0.5000000000000000  0.5000000000000000  0.1855829151745265   T   T   T
  0.8333333333333357  0.5000000000000000  0.1855829151745265   T   T   T
  0.1666666666666643  0.8333333333333357  0.1855829151745265   T   T   T
  0.5000000000000000  0.8333333333333357  0.1855829151745265   T   T   T
  0.8333333333333357  0.8333333333333357  0.1855829151745265   T   T   T
  0.0000000000000000  0.0000000000000000  0.0921260910858877   F   F   F
  0.3333333333333357  0.0000000000000000  0.0921260910858877   F   F   F
  0.6666666666666643  0.0000000000000000  0.0921260910858877   F   F   F
  0.0000000000000000  0.3333333333333357  0.0921260910858877   F   F   F
  0.3333333333333357  0.3333333333333357  0.0921260910858877   F   F   F
  0.6666666666666643  0.3333333333333357  0.0921260910858877   F   F   F
  0.0000000000000000  0.6666666666666643  0.0921260910858877   F   F   F
  0.3333333333333357  0.6666666666666643  0.0921260910858877   F   F   F
  0.6666666666666643  0.6666666666666643  0.0921260910858877   F   F   F
  0.1666666666666643  0.1666666666666643  0.0000000000000000   F   F   F
  0.5000000000000000  0.1666666666666643  0.0000000000000000   F   F   F
  0.8333333333333357  0.1666666666666643  0.0000000000000000   F   F   F
  0.1666666666666643  0.5000000000000000  0.0000000000000000   F   F   F
  0.5000000000000000  0.5000000000000000  0.0000000000000000   F   F   F
  0.8333333333333357  0.5000000000000000  0.0000000000000000   F   F   F
  0.1666666666666643  0.8333333333333357  0.0000000000000000   F   F   F
  0.5000000000000000  0.8333333333333357  0.0000000000000000   F   F   F
  0.8333333333333357  0.8333333333333357  0.0000000000000000   F   F   F
