 C  H Pd                                
   1.00000000000000     
    12.5888388066572645    0.0000000000000000    0.0000000000000000
     3.5968110876163579   11.4214091731274543    0.0000000000000000
     0.0000000000000000    0.0000000000000000   43.8040570914707530
   C    H    Pd
    10    12    88
Selective dynamics
Direct
  0.6007066342049858  0.6363016430230678  0.2025339985980148   T   T   T
  0.5049262485072915  0.5927300997060581  0.2027181245797014   T   T   T
  0.5178923410996301  0.4698736399639537  0.2027323620183253   T   T   T
  0.6268283058305447  0.3812283490612282  0.2032846713152000   T   T   T
  0.7235769424008218  0.4259339215069218  0.2046452731811582   T   T   T
  0.7094550514640018  0.5494446593566229  0.2039251008747305   T   T   T
  0.8261401482223505  0.3427942354924991  0.2189540925278558   T   T   T
  0.8003500481673730  0.3069806324654952  0.2515177774498363   T   T   T
  0.6835728957531709  0.2900824862669080  0.2539589705959522   T   T   T
  0.6382444561722616  0.2714271027483679  0.2222962946570785   T   T   T
  0.5915193357572344  0.7216085914685609  0.2131717424752544   T   T   T
  0.4242221002425539  0.6531668820042649  0.2091313808526214   T   T   T
  0.4463245170181510  0.4415520979355638  0.2094046716149859   T   T   T
  0.7797404588444816  0.5786979490851539  0.2112600679372927   T   T   T
  0.8955863329500133  0.3805093809459907  0.2191432226824453   T   T   T
  0.8543686942000371  0.2619631621222774  0.2048630084644475   T   T   T
  0.8078131530404822  0.3735477951574063  0.2679890181868159   T   T   T
  0.8650816579330453  0.2253100172088243  0.2574684433059807   T   T   T
  0.6244573573110532  0.3678177561870255  0.2644214531885394   T   T   T
  0.6859289134360312  0.2154234371868972  0.2688476734252646   T   T   T
  0.5570925298054624  0.2549785367704272  0.2238422368329565   T   T   T
  0.6956040776162956  0.1930335920370971  0.2115353488114394   T   T   T
  0.7755780122104530  0.0784140228684035  0.1542046723214139   T   T   T
  0.0037086748045335  0.0322600029900163  0.1543474994314962   T   T   T
  0.1101765625731359  0.0779110068701194  0.1023132942727812   T   T   T
  0.9902904615222071  0.1678463961314449  0.0512054349467661   F   F   F
  0.0054419766737226  0.0314827597678118  0.0000000000000000   F   F   F
  0.9743370440852694  0.3052772035375517  0.1021292767226493   T   T   T
  0.8366301373161997  0.5322216294105360  0.1027959511621548   T   T   T
  0.2302123677464014  0.9880515662027275  0.1544520820325861   T   T   T
  0.3379310260778957  0.0318527307426168  0.1022570728885066   T   T   T
  0.2175631887949337  0.1223918506768981  0.0512054349467661   F   F   F
  0.2327147039464493  0.9860282143132649  0.0000000000000000   F   F   F
  0.0957052215842583  0.2141918520605834  0.1544185124605958   T   T   T
  0.2013450657670258  0.2596351961406124  0.1022526064991912   T   T   T
  0.0811995524313006  0.3496645779496317  0.0512054349467661   F   F   F
  0.0963510675828161  0.2133009415859916  0.0000000000000000   F   F   F
  0.9625479467192379  0.4415993781345325  0.1540568157678199   T   T   T
  0.0647082481547384  0.4876308953836870  0.1020805089649984   T   T   T
  0.9448359160676606  0.5769373052223584  0.0512054349467661   F   F   F
  0.9599874312191760  0.4405736688587183  0.0000000000000000   F   F   F
  0.8242633477543542  0.6712856446923914  0.1539389321653476   T   T   T
  0.9275185010984710  0.7147587211382407  0.1020471265356637   T   T   T
  0.8084722797040201  0.8042100324950850  0.0512054349467661   F   F   F
  0.8236237948555358  0.6678463961314448  0.0000000000000000   F   F   F
  0.7909125311509806  0.9423927699767162  0.1021413772919764   T   T   T
  0.5648846164430882  0.9876564896400201  0.1022260433983235   T   T   T
  0.4448359160676675  0.0769373052223585  0.0512054349467661   F   F   F
  0.3214040760907051  0.1678118930084831  0.1542618350238055   T   T   T
  0.4284254893384011  0.2144225580316138  0.1021014016973700   T   T   T
  0.3084722797040272  0.3042100324950851  0.0512054349467661   F   F   F
  0.3236237948555428  0.1678463961314449  0.0000000000000000   F   F   F
  0.1849642740335351  0.3960336702780068  0.1542175141731695   T   T   T
  0.2915669433869642  0.4421429777352244  0.1020839768075457   T   T   T
  0.1721086433403941  0.5314827597678117  0.0512054349467661   F   F   F
  0.1872601584919099  0.3951191234041714  0.0000000000000000   F   F   F
  0.0482219165369803  0.6253324835901530  0.1542258411836145   T   T   T
  0.1550102154833621  0.6699862609462955  0.1020336073951853   T   T   T
  0.0357450069767538  0.7587554870405382  0.0512054349467661   F   F   F
  0.0508965221282586  0.6223918506769053  0.0000000000000000   F   F   F
  0.9115427486125537  0.8525123192126515  0.1541688194050924   T   T   T
  0.0187098612047318  0.8965720253670670  0.1022090042470411   T   T   T
  0.8993813706131139  0.9860282143132649  0.0512054349467661   F   F   F
  0.9145328857646295  0.8496645779496319  0.0000000000000000   F   F   F
  0.6721086433403941  0.0314827597678118  0.0512054349467661   F   F   F
  0.5482808275873693  0.1231140230473937  0.1542334298518701   T   T   T
  0.6549732297290509  0.1723189513941395  0.1031589323019949   T   T   T
  0.5357450069767538  0.2587554870405384  0.0512054349467661   F   F   F
  0.5508965221282693  0.1223918506768981  0.0000000000000000   F   F   F
  0.4086961579231525  0.3482237642566040  0.1537835774463136   T   T   T
  0.5190419505817739  0.3974353406078104  0.1029688091128478   T   T   T
  0.3993813706131211  0.4860282143132648  0.0512054349467661   F   F   F
  0.4145328857646364  0.3496645779496317  0.0000000000000000   F   F   F
  0.2707148037425958  0.5798389326093386  0.1538092210928848   T   T   T
  0.3833133127496958  0.6234657470831545  0.1023726600538485   T   T   T
  0.2630177342494804  0.7133009415859917  0.0512054349467661   F   F   F
  0.2781692494009960  0.5769373052223584  0.0000000000000000   F   F   F
  0.1378058661150165  0.8070085562515994  0.1544384371420021   T   T   T
  0.2465151200749006  0.8509268093786670  0.1021222083107323   T   T   T
  0.1266540978858473  0.9405736688587180  0.0512054349467661   F   F   F
  0.1418056130373629  0.8042100324950850  0.0000000000000000   F   F   F
  0.8825549403735126  0.1234692755668626  0.1020557638527731   T   T   T
  0.7630177342494734  0.2133009415859916  0.0512054349467661   F   F   F
  0.7781692494009961  0.0769373052223585  0.0000000000000000   F   F   F
  0.6380901840349995  0.3079331394668481  0.1570510290961531   T   T   T
  0.7460400007341886  0.3520850723884588  0.1031822317396981   T   T   T
  0.6266540978858475  0.4405736688587183  0.0512054349467661   F   F   F
  0.6418056130373629  0.3042100324950851  0.0000000000000000   F   F   F
  0.4952039259166051  0.5331871613620334  0.1553160897888841   T   T   T
  0.6104926900545214  0.5775794182590011  0.1032209442117875   T   T   T
  0.4902904615222072  0.6678463961314448  0.0512054349467661   F   F   F
  0.5054419766737228  0.5314827597678117  0.0000000000000000   F   F   F
  0.3628758436980620  0.7634397814832297  0.1537010792899011   T   T   T
  0.4751591798708805  0.8042211966121983  0.1028592611117749   T   T   T
  0.3539268251585739  0.8951191234041714  0.0512054349467661   F   F   F
  0.3690783403100896  0.7587554870405382  0.0000000000000000   F   F   F
  0.8710083352146328  0.2557633518607763  0.1534016305781161   T   T   T
  0.8539268251585675  0.3951191234041714  0.0512054349467661   F   F   F
  0.8690783403100895  0.2587554870405384  0.0000000000000000   F   F   F
  0.7386510007441677  0.4837004893092985  0.1566027768116011   T   T   T
  0.7175631887949336  0.6223918506769053  0.0512054349467661   F   F   F
  0.7327147039464493  0.4860282143132648  0.0000000000000000   F   F   F
  0.5949412099142711  0.7115416272692162  0.1570115989715365   T   T   T
  0.6997211238001123  0.7594878797667188  0.1029234549183826   T   T   T
  0.5811995524312934  0.8496645779496319  0.0512054349467661   F   F   F
  0.5963510675828163  0.7133009415859917  0.0000000000000000   F   F   F
  0.4580457838121418  0.9415032114338092  0.1543243801230576   T   T   T
  0.4599874312191831  0.9405736688587180  0.0000000000000000   F   F   F
  0.6849080710582702  0.8970671487192178  0.1543856465672132   T   T   T
  0.6872601584919096  0.8951191234041714  0.0000000000000000   F   F   F
 
             NaN             NaN             NaN
             NaN             NaN             NaN
             NaN             NaN             NaN
             NaN             NaN             NaN
             NaN             NaN             NaN
             NaN             NaN             NaN
             NaN             NaN             NaN
             NaN             NaN             NaN
             NaN             NaN             NaN
             NaN             NaN             NaN
             NaN             NaN             NaN
             NaN             NaN             NaN
             NaN             NaN             NaN
             NaN             NaN             NaN
             NaN             NaN             NaN
             NaN             NaN             NaN
             NaN             NaN             NaN
             NaN             NaN             NaN
             NaN             NaN             NaN
             NaN             NaN             NaN
             NaN             NaN             NaN
             NaN             NaN             NaN
             NaN             NaN             NaN
             NaN             NaN             NaN
             NaN             NaN             NaN
             NaN             NaN             NaN
             NaN             NaN             NaN
             NaN             NaN             NaN
             NaN             NaN             NaN
             NaN             NaN             NaN
             NaN             NaN             NaN
             NaN             NaN             NaN
             NaN             NaN             NaN
             NaN             NaN             NaN
             NaN             NaN             NaN
             NaN             NaN             NaN
             NaN             NaN             NaN
             NaN             NaN             NaN
             NaN             NaN             NaN
             NaN             NaN             NaN
             NaN             NaN             NaN
             NaN             NaN             NaN
             NaN             NaN             NaN
             NaN             NaN             NaN
             NaN             NaN             NaN
             NaN             NaN             NaN
             NaN             NaN             NaN
             NaN             NaN             NaN
             NaN             NaN             NaN
             NaN             NaN             NaN
             NaN             NaN             NaN
             NaN             NaN             NaN
             NaN             NaN             NaN
             NaN             NaN             NaN
             NaN             NaN             NaN
             NaN             NaN             NaN
             NaN             NaN             NaN
             NaN             NaN             NaN
             NaN             NaN             NaN
             NaN             NaN             NaN
             NaN             NaN             NaN
             NaN             NaN             NaN
             NaN             NaN             NaN
             NaN             NaN             NaN
             NaN             NaN             NaN
             NaN             NaN             NaN
             NaN             NaN             NaN
             NaN             NaN             NaN
             NaN             NaN             NaN
             NaN             NaN             NaN
             NaN             NaN             NaN
             NaN             NaN             NaN
             NaN             NaN             NaN
             NaN             NaN             NaN
             NaN             NaN             NaN
             NaN             NaN             NaN
             NaN             NaN             NaN
             NaN             NaN             NaN
             NaN             NaN             NaN
             NaN             NaN             NaN
             NaN             NaN             NaN
             NaN             NaN             NaN
             NaN             NaN             NaN
             NaN             NaN             NaN
             NaN             NaN             NaN
             NaN             NaN             NaN
             NaN             NaN             NaN
             NaN             NaN             NaN
             NaN             NaN             NaN
             NaN             NaN             NaN
             NaN             NaN             NaN
             NaN             NaN             NaN
             NaN             NaN             NaN
             NaN             NaN             NaN
             NaN             NaN             NaN
             NaN             NaN             NaN
             NaN             NaN             NaN
             NaN             NaN             NaN
             NaN             NaN             NaN
             NaN             NaN             NaN
             NaN             NaN             NaN
             NaN             NaN             NaN
             NaN             NaN             NaN
             NaN             NaN             NaN
             NaN             NaN             NaN
             NaN             NaN             NaN
             NaN             NaN             NaN
             NaN             NaN             NaN
             NaN             NaN             NaN
             NaN             NaN             NaN
